### SCRIPT TO PERFORM MDMC SIMULATIONS ON SLABS ###

# General settings that should not depend on the specific system (as long as they are alloys)
units metal 
dimension 3 
boundary p p p
atom_style atomic
atom_modify map array

# Vacuum to be left above and below the slab
variable dLx equal 10

# Output variables
variable tout equal 50
variable nevery equal 25
variable nrepeat equal 10
variable nfreq equal 250

# Crystal lattice and crystal plane orientation
include "substrate.lammps"

# region box block 0 1 0 1 0 1 units lattice
region box block 0 ${nx} 0 ${ny} 0 ${ns} units lattice
create_box 2 box
create_atoms 1 box
change_box all z delta -${dLx} ${dLx} boundary p p p
lattice none 1.0

group substrate type 1

# Interatomic potential
include "potential.lammps"
# Output
write_data ${alloyName}_${Orient}_ref.data
variable pea_avg equal "pe/atoms"
thermo ${tout}
thermo_style custom step v_pea_avg pe temp lx ly lz press

# Energy minimization
fix myMin all box/relax x 0.0 y 0.0 vmax 0.001  
min_style cg 
minimize 1e-4 1e-6 1000 100000
unfix myMin
reset_timestep 0

# Preliminary relaxation
velocity substrate create 300.0 4928459 rot yes dist gaussian
timestep 0.001
fix myEQ all npt temp 300.0 300.0 1.0 x 0.0 0.0 5.0 y 0.0 0.0 5.0
run 1000
unfix myEQ
reset_timestep 0
write_data ${alloyName}_${Orient}_relax.data
